PARAMETER_FILE = even/LKH_uncomplete_graph/x10/de/par/random116.par
PROBLEM_FILE = even/LKH_uncomplete_graph/x10/de/mat/random116.tsp
Successes/Runs = 0/10
Cost.min = 830, Cost.avg = 830.00, Cost.max = 830
Gap.min = 0.0000%, Gap.avg = 0.0000%, Gap.max = 0.0000%
Trials.min = 1000, Trials.avg = 1000.0, Trials.max = 1000
Time.min = 0.11 sec., Time.avg = 0.13 sec., Time.max = 0.14 sec.
Time.total = 1.39 sec.
请按任意键继续. . . 
